%SETS
JOBS     = 1..25;
MACHINES = 1..20;
SPEED    = 5;

time        = array3d(JOBS,MACHINES,1..SPEED,[1, 1, 1, 1, 1, 105, 36, 25, 21, 18, 3, 1, 1, 1, 1, 10, 3, 2, 2, 1, 1, 1, 1, 1, 1, 6, 2, 1, 1, 1, 12, 4, 3, 2, 2, 58, 20, 14, 11, 10, 10, 3, 2, 2, 1, 108, 37, 26, 22, 19, 1, 1, 1, 1, 1, 11, 3, 2, 2, 2, 12, 4, 3, 2, 2, 37, 12, 9, 7, 6, 72, 24, 17, 14, 13, 9, 3, 2, 2, 1, 14, 5, 3, 2, 2, 8, 2, 1, 1, 1, 41, 14, 10, 8, 7, 26, 9, 6, 5, 4, 1, 1, 1, 1, 1, 23, 8, 5, 4, 4, 41, 14, 10, 8, 7, 1, 1, 1, 1, 1, 15, 5, 3, 3, 2, 40, 13, 9, 8, 7, 115, 39, 28, 23, 20, 22, 7, 5, 4, 4, 1, 1, 1, 1, 1, 15, 5, 3, 3, 2, 5, 1, 1, 1, 1, 25, 8, 6, 5, 4, 6, 2, 1, 1, 1, 4, 1, 1, 1, 1, 19, 6, 4, 4, 3, 2, 1, 1, 1, 1, 33, 11, 8, 6, 6, 72, 25, 17, 14, 13, 74, 25, 18, 15, 13, 12, 4, 2, 2, 2, 23, 8, 5, 4, 4, 28, 9, 6, 5, 5, 18, 6, 4, 3, 3, 16, 5, 4, 3, 2, 1, 1, 1, 1, 1, 1, 1, 1, 1, 1, 14, 5, 3, 3, 2, 14, 5, 3, 2, 2, 5, 1, 1, 1, 1, 19, 6, 4, 3, 3, 23, 8, 5, 4, 4, 33, 11, 8, 6, 5, 9, 3, 2, 1, 1, 13, 4, 3, 2, 2, 44, 15, 10, 9, 8, 22, 7, 5, 4, 4, 31, 10, 7, 6, 5, 18, 6, 4, 3, 3, 45, 15, 11, 9, 8, 33, 11, 8, 6, 5, 52, 17, 12, 10, 9, 5, 2, 1, 1, 1, 9, 3, 2, 1, 1, 16, 5, 4, 3, 3, 17, 6, 4, 3, 3, 24, 8, 5, 4, 4, 44, 15, 10, 8, 7, 19, 6, 4, 3, 3, 72, 25, 17, 14, 13, 33, 11, 8, 6, 5, 5, 1, 1, 1, 1, 25, 8, 6, 5, 4, 21, 7, 5, 4, 3, 37, 12, 9, 7, 6, 42, 14, 10, 8, 7, 9, 3, 2, 1, 1, 3, 1, 1, 1, 1, 26, 9, 6, 5, 4, 1, 1, 1, 1, 1, 40, 13, 9, 8, 7, 18, 6, 4, 3, 3, 151, 52, 37, 30, 27, 107, 36, 26, 21, 19, 6, 2, 1, 1, 1, 49, 16, 12, 9, 8, 43, 14, 10, 8, 7, 6, 2, 1, 1, 1, 27, 9, 6, 5, 4, 97, 33, 23, 19, 17, 34, 11, 8, 6, 6, 2, 1, 1, 1, 1, 17, 6, 4, 3, 3, 16, 5, 3, 3, 2, 1, 1, 1, 1, 1, 116, 40, 28, 23, 20, 54, 18, 13, 11, 9, 6, 2, 1, 1, 1, 24, 8, 5, 4, 4, 16, 5, 4, 3, 2, 11, 3, 2, 2, 2, 19, 6, 4, 3, 3, 21, 7, 5, 4, 3, 46, 16, 11, 9, 8, 1, 1, 1, 1, 1, 24, 8, 5, 4, 4, 18, 6, 4, 3, 3, 4, 1, 1, 1, 1, 4, 1, 1, 1, 1, 26, 9, 6, 5, 4, 55, 19, 13, 11, 9, 1, 1, 1, 1, 1, 14, 4, 3, 2, 2, 54, 18, 13, 11, 9, 16, 5, 4, 3, 3, 11, 4, 2, 2, 2, 7, 2, 1, 1, 1, 1, 1, 1, 1, 1, 4, 1, 1, 1, 1, 21, 7, 5, 4, 3, 19, 6, 4, 3, 3, 20, 7, 4, 4, 3, 9, 3, 2, 1, 1, 51, 17, 12, 10, 9, 48, 16, 11, 9, 8, 16, 5, 3, 3, 2, 36, 12, 8, 7, 6, 39, 13, 9, 8, 7, 11, 4, 2, 2, 2, 5, 1, 1, 1, 1, 7, 2, 1, 1, 1, 7, 2, 1, 1, 1, 12, 4, 3, 2, 2, 1, 1, 1, 1, 1, 8, 2, 2, 1, 1, 19, 6, 4, 4, 3, 14, 4, 3, 2, 2, 19, 6, 4, 3, 3, 34, 12, 8, 7, 6, 69, 23, 16, 14, 12, 10, 3, 2, 2, 1, 8, 2, 2, 1, 1, 16, 5, 4, 3, 3, 24, 8, 5, 4, 4, 5, 1, 1, 1, 1, 1, 1, 1, 1, 1, 5, 2, 1, 1, 1, 7, 2, 1, 1, 1, 14, 5, 3, 3, 2, 25, 8, 6, 5, 4, 9, 3, 2, 1, 1, 95, 33, 23, 19, 17, 53, 18, 12, 10, 9, 25, 8, 6, 5, 4, 10, 3, 2, 2, 1, 4, 1, 1, 1, 1, 27, 9, 6, 5, 5, 32, 11, 7, 6, 5, 1, 1, 1, 1, 1, 38, 13, 9, 7, 6, 56, 19, 13, 11, 10, 25, 8, 6, 5, 4, 31, 10, 7, 6, 5, 51, 17, 12, 10, 9, 76, 26, 18, 15, 13, 11, 3, 2, 2, 2, 1, 1, 1, 1, 1, 9, 3, 2, 1, 1, 4, 1, 1, 1, 1, 12, 4, 2, 2, 2, 18, 6, 4, 3, 3, 40, 13, 9, 8, 7, 78, 27, 19, 16, 14, 8, 3, 2, 1, 1, 78, 27, 19, 15, 14, 5, 1, 1, 1, 1, 15, 5, 3, 3, 2, 5, 1, 1, 1, 1, 7, 2, 1, 1, 1, 1, 1, 1, 1, 1, 7, 2, 1, 1, 1, 12, 4, 3, 2, 2, 17, 6, 4, 3, 3, 9, 3, 2, 1, 1, 1, 1, 1, 1, 1, 54, 18, 13, 11, 9, 6, 2, 1, 1, 1, 6, 2, 1, 1, 1, 1, 1, 1, 1, 1, 7, 2, 1, 1, 1, 8, 2, 2, 1, 1, 22, 7, 5, 4, 3, 19, 6, 4, 3, 3, 41, 14, 10, 8, 7, 38, 13, 9, 7, 7, 68, 23, 16, 14, 12, 19, 6, 4, 3, 3, 70, 24, 17, 14, 12, 43, 15, 10, 8, 7, 5, 1, 1, 1, 1, 30, 10, 7, 6, 5, 63, 22, 15, 12, 11, 60, 20, 14, 12, 10, 51, 17, 12, 10, 9, 26, 9, 6, 5, 4, 83, 28, 20, 16, 14, 7, 2, 1, 1, 1, 30, 10, 7, 6, 5, 3, 1, 1, 1, 1, 28, 9, 6, 5, 5, 32, 11, 7, 6, 5, 28, 9, 7, 5, 5, 17, 6, 4, 3, 3, 13, 4, 3, 2, 2, 52, 18, 12, 10, 9, 16, 5, 4, 3, 2, 9, 3, 2, 2, 1, 1, 1, 1, 1, 1, 27, 9, 6, 5, 5, 36, 12, 8, 7, 6, 18, 6, 4, 3, 3, 33, 11, 8, 6, 6, 26, 9, 6, 5, 4, 18, 6, 4, 3, 3, 5, 1, 1, 1, 1, 11, 3, 2, 2, 2, 33, 11, 8, 6, 6, 35, 12, 8, 7, 6, 1, 1, 1, 1, 1, 14, 4, 3, 2, 2, 24, 8, 5, 4, 4, 34, 11, 8, 6, 6, 13, 4, 3, 2, 2, 20, 7, 4, 4, 3, 12, 4, 3, 2, 2, 10, 3, 2, 2, 1, 10, 3, 2, 2, 1, 44, 15, 10, 9, 8, 2, 1, 1, 1, 1, 1, 1, 1, 1, 1, 29, 10, 7, 6, 5, 11, 4, 2, 2, 2, 72, 25, 17, 14, 13, 4, 1, 1, 1, 1, 13, 4, 3, 2, 2, 13, 4, 3, 2, 2, 18, 6, 4, 3, 3, 4, 1, 1, 1, 1, 104, 36, 25, 21, 18, 25, 8, 6, 5, 4, 68, 23, 16, 13, 12, 26, 9, 6, 5, 4, 26, 9, 6, 5, 4, 23, 8, 5, 4, 4, 7, 2, 1, 1, 1, 8, 3, 2, 1, 1, 4, 1, 1, 1, 1, 31, 10, 7, 6, 5, 50, 17, 12, 10, 9, 6, 2, 1, 1, 1, 1, 1, 1, 1, 1, 13, 4, 3, 2, 2, 87, 30, 21, 17, 15, 4, 1, 1, 1, 1, 20, 7, 5, 4, 3, 38, 13, 9, 7, 6, 5, 1, 1, 1, 1, 11, 3, 2, 2, 1, 6, 2, 1, 1, 1, 16, 5, 3, 3, 2, 70, 24, 17, 14, 12, 25, 8, 6, 5, 4, 3, 1, 1, 1, 1, 10, 3, 2, 2, 1, 31, 10, 7, 6, 5, 134, 46, 33, 27, 24, 11, 4, 2, 2, 2, 18, 6, 4, 3, 3, 6, 2, 1, 1, 1, 11, 3, 2, 2, 1, 3, 1, 1, 1, 1, 5, 1, 1, 1, 1, 9, 3, 2, 1, 1, 1, 1, 1, 1, 1, 8, 2, 2, 1, 1, 2, 1, 1, 1, 1, 1, 1, 1, 1, 1, 86, 29, 21, 17, 15, 10, 3, 2, 2, 1, 30, 10, 7, 6, 5, 8, 2, 2, 1, 1, 15, 5, 3, 3, 2, 44, 15, 10, 9, 7, 40, 14, 9, 8, 7, 19, 6, 4, 3, 3, 11, 3, 2, 2, 2, 10, 3, 2, 2, 1, 55, 19, 13, 11, 9, 3, 1, 1, 1, 1, 12, 4, 3, 2, 2, 1, 1, 1, 1, 1, 26, 8, 6, 5, 4, 73, 25, 18, 15, 13, 21, 7, 5, 4, 3, 11, 4, 2, 2, 2, 9, 3, 2, 1, 1, 31, 10, 7, 6, 5, 4, 1, 1, 1, 1, 33, 11, 8, 6, 5, 4, 1, 1, 1, 1, 8, 2, 2, 1, 1, 92, 32, 22, 18, 16, 10, 3, 2, 2, 1, 84, 29, 20, 17, 15, 59, 20, 14, 12, 10, 5, 1, 1, 1, 1, 1, 1, 1, 1, 1, 12, 4, 2, 2, 2, 30, 10, 7, 6, 5, 77, 26, 19, 15, 13, 11, 3, 2, 2, 2, 11, 4, 2, 2, 2, 3, 1, 1, 1, 1, 36, 12, 8, 7, 6, 16, 5, 4, 3, 2, 17, 5, 4, 3, 3, 5, 1, 1, 1, 1, 1, 1, 1, 1, 1, 30, 10, 7, 6, 5, 17, 5, 4, 3, 3, 45, 15, 11, 9, 8, 1, 1, 1, 1, 1, 46, 15, 11, 9, 8, 47, 16, 11, 9, 8, 8, 2, 2, 1, 1, 10, 3, 2, 2, 1, 33, 11, 8, 6, 6, 34, 11, 8, 7, 6, 40, 14, 10, 8, 7, 2, 1, 1, 1, 1, 15, 5, 3, 3, 2, 49, 17, 12, 10, 8, 117, 40, 28, 23, 21, 33, 11, 8, 6, 5, 42, 14, 10, 8, 7, 3, 1, 1, 1, 1, 101, 34, 24, 20, 18, 10, 3, 2, 2, 1, 5, 1, 1, 1, 1, 28, 9, 7, 5, 5, 1, 1, 1, 1, 1, 14, 4, 3, 2, 2, 30, 10, 7, 6, 5, 1, 1, 1, 1, 1, 10, 3, 2, 2, 1, 3, 1, 1, 1, 1, 3, 1, 1, 1, 1, 72, 25, 17, 14, 13, 2, 1, 1, 1, 1, 16, 5, 4, 3, 2, 10, 3, 2, 2, 1, 69, 24, 17, 14, 12, 22, 7, 5, 4, 4, 29, 10, 7, 5, 5, 16, 5, 3, 3, 2, 28, 9, 6, 5, 5, 1, 1, 1, 1, 1, 19, 6, 4, 3, 3, 52, 18, 12, 10, 9, 19, 6, 4, 3, 3, 13, 4, 3, 2, 2, 2, 1, 1, 1, 1, 27, 9, 6, 5, 4, 29, 10, 7, 6, 5, 31, 10, 7, 6, 5, 7, 2, 1, 1, 1, 13, 4, 3, 2, 2, 16, 5, 4, 3, 3, 8, 2, 2, 1, 1, 12, 4, 3, 2, 2, 1, 1, 1, 1, 1, 17, 6, 4, 3, 3, 13, 4, 3, 2, 2, 13, 4, 3, 2, 2, 5, 1, 1, 1, 1, 17, 6, 4, 3, 3, 27, 9, 6, 5, 4, 25, 8, 6, 5, 4, 49, 17, 12, 10, 8, 1, 1, 1, 1, 1, 5, 2, 1, 1, 1, 22, 7, 5, 4, 4, 68, 23, 16, 13, 12, 52, 18, 12, 10, 9, 15, 5, 3, 3, 2, 119, 41, 29, 24, 21, 3, 1, 1, 1, 1, 9, 3, 2, 1, 1, 1, 1, 1, 1, 1, 11, 4, 2, 2, 2, 6, 2, 1, 1, 1, 7, 2, 1, 1, 1, 86, 29, 21, 17, 15, 11, 3, 2, 2, 1, 1, 1, 1, 1, 1, 27, 9, 6, 5, 4, 73, 25, 17, 14, 13, 18, 6, 4, 3, 3, 29, 10, 7, 5, 5, 99, 34, 24, 20, 17, 14, 4, 3, 2, 2, 37, 13, 9, 7, 6, 1, 1, 1, 1, 1, 24, 8, 6, 5, 4, 12, 4, 3, 2, 2, 58, 20, 14, 11, 10, 9, 3, 2, 1, 1, 8, 2, 2, 1, 1, 11, 4, 2, 2, 2, 1, 1, 1, 1, 1, 11, 3, 2, 2, 1, 5, 1, 1, 1, 1, 43, 15, 10, 8, 7, 2, 1, 1, 1, 1, 1, 1, 1, 1, 1, 18, 6, 4, 3, 3, 24, 8, 5, 4, 4, 17, 5, 4, 3, 3, 3, 1, 1, 1, 1, 19, 6, 4, 4, 3, 42, 14, 10, 8, 7, 49, 17, 12, 10, 8, 57, 19, 14, 11, 10, 40, 13, 9, 8, 7, 74, 25, 18, 15, 13, 10, 3, 2, 2, 1, 4, 1, 1, 1, 1, 33, 11, 8, 6, 5, 24, 8, 6, 5, 4, 1, 1, 1, 1, 1, 55, 19, 13, 11, 9, 33, 11, 8, 6, 6, 12, 4, 3, 2, 2, 26, 9, 6, 5, 4, 15, 5, 3, 3, 2, 4, 1, 1, 1, 1, 14, 5, 3, 3, 2, 13, 4, 3, 2, 2, 1, 1, 1, 1, 1, 1, 1, 1, 1, 1, 35, 12, 8, 7, 6, 38, 13, 9, 7, 6, 30, 10, 7, 6, 5, 5, 1, 1, 1, 1, 29, 10, 7, 5, 5, 1, 1, 1, 1, 1, 55, 19, 13, 11, 9, 1, 1, 1, 1, 1, 23, 8, 5, 4, 4, 1, 1, 1, 1, 1, 24, 8, 6, 5, 4, 1, 1, 1, 1, 1, 28, 9, 7, 5, 5, 22, 7, 5, 4, 4, 16, 5, 4, 3, 3, 9, 3, 2, 1, 1, 15, 5, 3, 3, 2, 44, 15, 10, 9, 8, 12, 4, 2, 2, 2, 4, 1, 1, 1, 1, 29, 10, 7, 6, 5, 23, 8, 5, 4, 4, 20, 7, 5, 4, 3, 17, 6, 4, 3, 3, 5, 2, 1, 1, 1, 37, 12, 9, 7, 6, 27, 9, 6, 5, 4, 53, 18, 13, 10, 9, 24, 8, 6, 5, 4, 28, 9, 6, 5, 5, 12, 4, 2, 2, 2, 11, 3, 2, 2, 2, 14, 5, 3, 3, 2, 19, 6, 4, 4, 3, 151, 52, 37, 30, 27, 10, 3, 2, 2, 1, 5, 1, 1, 1, 1, 3, 1, 1, 1, 1, 38, 13, 9, 7, 7, 3, 1, 1, 1, 1, 2, 1, 1, 1, 1, 147, 50, 36, 29, 26, 59, 20, 14, 12, 10, 40, 13, 9, 8, 7, 7, 2, 1, 1, 1, 5, 1, 1, 1, 1, 29, 10, 7, 5, 5, 1, 1, 1, 1, 1, 16, 5, 4, 3, 2, 64, 22, 15, 13, 11, 25, 8, 6, 5, 4]);
energy      = array3d(JOBS,MACHINES,1..SPEED,[99, 99, 99, 99, 99, 34, 69, 77, 81, 83, 97, 99, 99, 99, 99, 90, 97, 98, 98, 99, 99, 99, 99, 99, 99, 94, 98, 99, 99, 99, 88, 96, 97, 98, 98, 55, 81, 86, 89, 90, 90, 97, 98, 98, 99, 33, 69, 77, 80, 82, 99, 99, 99, 99, 99, 89, 97, 98, 98, 98, 88, 96, 97, 98, 98, 69, 88, 91, 93, 94, 48, 78, 84, 86, 87, 91, 97, 98, 98, 99, 86, 95, 97, 98, 98, 92, 98, 99, 99, 99, 66, 86, 90, 92, 93, 77, 91, 94, 95, 96, 99, 99, 99, 99, 99, 79, 92, 95, 96, 96, 66, 86, 90, 92, 93, 99, 99, 99, 99, 99, 86, 95, 97, 97, 98, 67, 87, 91, 92, 93, 31, 67, 75, 79, 81, 80, 93, 95, 96, 96, 99, 99, 99, 99, 99, 86, 95, 97, 97, 98, 95, 99, 99, 99, 99, 77, 92, 94, 95, 96, 94, 98, 99, 99, 99, 96, 99, 99, 99, 99, 82, 94, 96, 96, 97, 98, 99, 99, 99, 99, 71, 89, 92, 94, 94, 48, 77, 84, 86, 87, 47, 77, 83, 86, 87, 88, 96, 98, 98, 98, 79, 92, 95, 96, 96, 75, 91, 94, 95, 95, 83, 94, 96, 97, 97, 85, 95, 96, 97, 98, 99, 99, 99, 99, 99, 99, 99, 99, 99, 99, 86, 95, 97, 97, 98, 86, 95, 97, 98, 98, 95, 99, 99, 99, 99, 82, 94, 96, 97, 97, 79, 92, 95, 96, 96, 71, 89, 92, 94, 95, 91, 97, 98, 99, 99, 87, 96, 97, 98, 98, 64, 86, 90, 91, 92, 80, 93, 95, 96, 96, 73, 90, 93, 94, 95, 83, 94, 96, 97, 97, 63, 86, 89, 91, 92, 71, 89, 92, 94, 95, 59, 84, 88, 90, 91, 95, 98, 99, 99, 99, 91, 97, 98, 99, 99, 85, 95, 96, 97, 97, 84, 94, 96, 97, 97, 78, 92, 95, 96, 96, 64, 86, 90, 92, 93, 82, 94, 96, 97, 97, 48, 77, 84, 86, 87, 71, 89, 92, 94, 95, 95, 99, 99, 99, 99, 77, 92, 94, 95, 96, 81, 93, 95, 96, 97, 69, 88, 91, 93, 94, 65, 86, 90, 92, 93, 91, 97, 98, 99, 99, 97, 99, 99, 99, 99, 77, 91, 94, 95, 96, 99, 99, 99, 99, 99, 67, 87, 91, 92, 93, 83, 94, 96, 97, 97, 22, 59, 69, 74, 76, 34, 69, 77, 81, 82, 94, 98, 99, 99, 99, 61, 85, 88, 91, 92, 65, 86, 90, 92, 93, 94, 98, 99, 99, 99, 76, 91, 94, 95, 96, 37, 71, 79, 82, 84, 71, 89, 92, 94, 94, 98, 99, 99, 99, 99, 84, 94, 96, 97, 97, 85, 95, 97, 97, 98, 99, 99, 99, 99, 99, 31, 67, 75, 79, 81, 58, 83, 87, 89, 91, 94, 98, 99, 99, 99, 78, 92, 95, 96, 96, 85, 95, 96, 97, 98, 89, 97, 98, 98, 98, 82, 94, 96, 97, 97, 81, 93, 95, 96, 97, 63, 85, 89, 91, 92, 99, 99, 99, 99, 99, 78, 92, 95, 96, 96, 83, 94, 96, 97, 97, 96, 99, 99, 99, 99, 96, 99, 99, 99, 99, 77, 91, 94, 95, 96, 57, 82, 87, 89, 91, 99, 99, 99, 99, 99, 86, 96, 97, 98, 98, 58, 83, 87, 89, 91, 85, 95, 96, 97, 97, 89, 96, 98, 98, 98, 93, 98, 99, 99, 99, 99, 99, 99, 99, 99, 96, 99, 99, 99, 99, 81, 93, 95, 96, 97, 82, 94, 96, 97, 97, 81, 93, 96, 96, 97, 91, 97, 98, 99, 99, 60, 84, 88, 90, 91, 61, 85, 89, 91, 92, 85, 95, 97, 97, 98, 69, 88, 92, 93, 94, 67, 87, 91, 92, 93, 89, 96, 98, 98, 98, 95, 99, 99, 99, 99, 93, 98, 99, 99, 99, 93, 98, 99, 99, 99, 88, 96, 97, 98, 98, 99, 99, 99, 99, 99, 92, 98, 98, 99, 99, 82, 94, 96, 96, 97, 86, 96, 97, 98, 98, 82, 94, 96, 97, 97, 71, 88, 92, 93, 94, 50, 79, 85, 86, 88, 90, 97, 98, 98, 99, 92, 98, 98, 99, 99, 85, 95, 96, 97, 97, 78, 92, 95, 96, 96, 95, 99, 99, 99, 99, 99, 99, 99, 99, 99, 95, 98, 99, 99, 99, 93, 98, 99, 99, 99, 86, 95, 97, 97, 98, 77, 92, 94, 95, 96, 91, 97, 98, 99, 99, 38, 71, 79, 82, 84, 58, 83, 88, 90, 91, 77, 92, 94, 95, 96, 90, 97, 98, 98, 99, 96, 99, 99, 99, 99, 76, 91, 94, 95, 95, 72, 89, 93, 94, 95, 99, 99, 99, 99, 99, 68, 87, 91, 93, 94, 57, 82, 87, 89, 90, 77, 92, 94, 95, 96, 73, 90, 93, 94, 95, 60, 84, 88, 90, 91, 46, 77, 83, 86, 87, 89, 97, 98, 98, 98, 99, 99, 99, 99, 99, 91, 97, 98, 99, 99, 96, 99, 99, 99, 99, 88, 96, 98, 98, 98, 83, 94, 96, 97, 97, 67, 87, 91, 92, 93, 45, 76, 82, 85, 86, 92, 97, 98, 99, 99, 45, 76, 82, 86, 86, 95, 99, 99, 99, 99, 86, 95, 97, 97, 98, 95, 99, 99, 99, 99, 93, 98, 99, 99, 99, 99, 99, 99, 99, 99, 93, 98, 99, 99, 99, 88, 96, 97, 98, 98, 84, 94, 96, 97, 97, 91, 97, 98, 99, 99, 99, 99, 99, 99, 99, 58, 83, 87, 89, 91, 94, 98, 99, 99, 99, 94, 98, 99, 99, 99, 99, 99, 99, 99, 99, 93, 98, 99, 99, 99, 92, 98, 98, 99, 99, 80, 93, 95, 96, 97, 82, 94, 96, 97, 97, 66, 86, 90, 92, 93, 68, 87, 91, 93, 93, 50, 79, 85, 86, 88, 82, 94, 96, 97, 97, 49, 78, 84, 86, 88, 65, 86, 90, 92, 93, 95, 99, 99, 99, 99, 74, 90, 93, 94, 95, 53, 80, 86, 88, 89, 54, 81, 86, 88, 90, 60, 84, 88, 90, 91, 77, 91, 94, 95, 96, 43, 75, 81, 85, 86, 93, 98, 99, 99, 99, 74, 90, 93, 94, 95, 97, 99, 99, 99, 99, 75, 91, 94, 95, 95, 72, 89, 93, 94, 95, 75, 91, 93, 95, 95, 84, 94, 96, 97, 97, 87, 96, 97, 98, 98, 59, 83, 88, 90, 91, 85, 95, 96, 97, 98, 91, 97, 98, 98, 99, 99, 99, 99, 99, 99, 76, 91, 94, 95, 95, 69, 88, 92, 93, 94, 83, 94, 96, 97, 97, 71, 89, 92, 94, 94, 77, 91, 94, 95, 96, 83, 94, 96, 97, 97, 95, 99, 99, 99, 99, 89, 97, 98, 98, 98, 71, 89, 92, 94, 94, 70, 88, 92, 93, 94, 99, 99, 99, 99, 99, 86, 96, 97, 98, 98, 78, 92, 95, 96, 96, 71, 89, 92, 94, 94, 87, 96, 97, 98, 98, 81, 93, 96, 96, 97, 88, 96, 97, 98, 98, 90, 97, 98, 98, 99, 90, 97, 98, 98, 99, 64, 86, 90, 91, 92, 98, 99, 99, 99, 99, 99, 99, 99, 99, 99, 74, 90, 93, 94, 95, 89, 96, 98, 98, 98, 48, 77, 84, 86, 87, 96, 99, 99, 99, 99, 87, 96, 97, 98, 98, 87, 96, 97, 98, 98, 83, 94, 96, 97, 97, 96, 99, 99, 99, 99, 35, 69, 77, 81, 83, 77, 92, 94, 95, 96, 50, 79, 85, 87, 88, 77, 91, 94, 95, 96, 77, 91, 94, 95, 96, 79, 92, 95, 96, 96, 93, 98, 99, 99, 99, 92, 97, 98, 99, 99, 96, 99, 99, 99, 99, 73, 90, 93, 94, 95, 60, 84, 88, 90, 91, 94, 98, 99, 99, 99, 99, 99, 99, 99, 99, 87, 96, 97, 98, 98, 41, 74, 81, 84, 86, 96, 99, 99, 99, 99, 81, 93, 95, 96, 97, 68, 87, 91, 93, 94, 95, 99, 99, 99, 99, 89, 97, 98, 98, 99, 94, 98, 99, 99, 99, 85, 95, 97, 97, 98, 49, 78, 84, 86, 88, 77, 92, 94, 95, 96, 97, 99, 99, 99, 99, 90, 97, 98, 98, 99, 73, 90, 93, 94, 95, 26, 63, 71, 76, 78, 89, 96, 98, 98, 98, 83, 94, 96, 97, 97, 94, 98, 99, 99, 99, 89, 97, 98, 98, 99, 97, 99, 99, 99, 99, 95, 99, 99, 99, 99, 91, 97, 98, 99, 99, 99, 99, 99, 99, 99, 92, 98, 98, 99, 99, 98, 99, 99, 99, 99, 99, 99, 99, 99, 99, 42, 74, 81, 84, 86, 90, 97, 98, 98, 99, 74, 90, 93, 94, 95, 92, 98, 98, 99, 99, 86, 95, 97, 97, 98, 64, 86, 90, 91, 93, 67, 86, 91, 92, 93, 82, 94, 96, 97, 97, 89, 97, 98, 98, 98, 90, 97, 98, 98, 99, 57, 82, 87, 89, 91, 97, 99, 99, 99, 99, 88, 96, 97, 98, 98, 99, 99, 99, 99, 99, 77, 92, 94, 95, 96, 48, 77, 83, 86, 87, 81, 93, 95, 96, 97, 89, 96, 98, 98, 98, 91, 97, 98, 99, 99, 73, 90, 93, 94, 95, 96, 99, 99, 99, 99, 71, 89, 92, 94, 95, 96, 99, 99, 99, 99, 92, 98, 98, 99, 99, 39, 72, 80, 83, 85, 90, 97, 98, 98, 99, 43, 74, 81, 84, 86, 55, 81, 86, 88, 90, 95, 99, 99, 99, 99, 99, 99, 99, 99, 99, 88, 96, 98, 98, 98, 74, 90, 93, 94, 95, 46, 77, 82, 86, 87, 89, 97, 98, 98, 98, 89, 96, 98, 98, 98, 97, 99, 99, 99, 99, 69, 88, 92, 93, 94, 85, 95, 96, 97, 98, 84, 95, 96, 97, 97, 95, 99, 99, 99, 99, 99, 99, 99, 99, 99, 74, 90, 93, 94, 95, 84, 95, 96, 97, 97, 63, 86, 89, 91, 92, 99, 99, 99, 99, 99, 63, 86, 89, 91, 92, 62, 85, 89, 91, 92, 92, 98, 98, 99, 99, 90, 97, 98, 98, 99, 71, 89, 92, 94, 94, 71, 89, 92, 93, 94, 67, 86, 90, 92, 93, 98, 99, 99, 99, 99, 86, 95, 97, 97, 98, 61, 84, 88, 90, 92, 31, 67, 75, 79, 81, 71, 89, 92, 94, 95, 65, 86, 90, 92, 93, 97, 99, 99, 99, 99, 36, 71, 78, 81, 83, 90, 97, 98, 98, 99, 95, 99, 99, 99, 99, 75, 91, 93, 95, 95, 99, 99, 99, 99, 99, 86, 96, 97, 98, 98, 74, 90, 93, 94, 95, 99, 99, 99, 99, 99, 90, 97, 98, 98, 99, 97, 99, 99, 99, 99, 97, 99, 99, 99, 99, 48, 77, 84, 86, 87, 98, 99, 99, 99, 99, 85, 95, 96, 97, 98, 90, 97, 98, 98, 99, 50, 78, 84, 86, 88, 80, 93, 95, 96, 96, 74, 90, 93, 95, 95, 85, 95, 97, 97, 98, 75, 91, 94, 95, 95, 99, 99, 99, 99, 99, 82, 94, 96, 97, 97, 59, 83, 88, 90, 91, 82, 94, 96, 97, 97, 87, 96, 97, 98, 98, 98, 99, 99, 99, 99, 76, 91, 94, 95, 96, 74, 90, 93, 94, 95, 73, 90, 93, 94, 95, 93, 98, 99, 99, 99, 87, 96, 97, 98, 98, 85, 95, 96, 97, 97, 92, 98, 98, 99, 99, 88, 96, 97, 98, 98, 99, 99, 99, 99, 99, 84, 94, 96, 97, 97, 87, 96, 97, 98, 98, 87, 96, 97, 98, 98, 95, 99, 99, 99, 99, 84, 94, 96, 97, 97, 76, 91, 94, 95, 96, 77, 92, 94, 95, 96, 61, 84, 88, 90, 92, 99, 99, 99, 99, 99, 95, 98, 99, 99, 99, 80, 93, 95, 96, 96, 50, 79, 85, 87, 88, 59, 83, 88, 90, 91, 86, 95, 97, 97, 98, 30, 66, 74, 78, 81, 97, 99, 99, 99, 99, 91, 97, 98, 99, 99, 99, 99, 99, 99, 99, 89, 96, 98, 98, 98, 94, 98, 99, 99, 99, 93, 98, 99, 99, 99, 42, 74, 81, 84, 86, 89, 97, 98, 98, 99, 99, 99, 99, 99, 99, 76, 91, 94, 95, 96, 48, 77, 84, 86, 87, 83, 94, 96, 97, 97, 74, 90, 93, 95, 95, 37, 71, 78, 81, 84, 86, 96, 97, 98, 98, 69, 87, 91, 93, 94, 99, 99, 99, 99, 99, 78, 92, 94, 95, 96, 88, 96, 97, 98, 98, 55, 81, 86, 89, 90, 91, 97, 98, 99, 99, 92, 98, 98, 99, 99, 89, 96, 98, 98, 98, 99, 99, 99, 99, 99, 89, 97, 98, 98, 99, 95, 99, 99, 99, 99, 65, 86, 90, 92, 93, 98, 99, 99, 99, 99, 99, 99, 99, 99, 99, 83, 94, 96, 97, 97, 78, 92, 95, 96, 96, 84, 95, 96, 97, 97, 97, 99, 99, 99, 99, 82, 94, 96, 96, 97, 65, 86, 90, 92, 93, 61, 84, 88, 90, 92, 56, 82, 86, 89, 90, 67, 87, 91, 92, 93, 47, 77, 83, 86, 87, 90, 97, 98, 98, 99, 96, 99, 99, 99, 99, 71, 89, 92, 94, 95, 78, 92, 94, 95, 96, 99, 99, 99, 99, 99, 57, 82, 87, 89, 91, 71, 89, 92, 94, 94, 88, 96, 97, 98, 98, 77, 91, 94, 95, 96, 86, 95, 97, 97, 98, 96, 99, 99, 99, 99, 86, 95, 97, 97, 98, 87, 96, 97, 98, 98, 99, 99, 99, 99, 99, 99, 99, 99, 99, 99, 70, 88, 92, 93, 94, 68, 87, 91, 93, 94, 74, 90, 93, 94, 95, 95, 99, 99, 99, 99, 74, 90, 93, 95, 95, 99, 99, 99, 99, 99, 57, 82, 87, 89, 91, 99, 99, 99, 99, 99, 79, 92, 95, 96, 96, 99, 99, 99, 99, 99, 78, 92, 94, 95, 96, 99, 99, 99, 99, 99, 75, 91, 93, 95, 95, 80, 93, 95, 96, 96, 85, 95, 96, 97, 97, 91, 97, 98, 99, 99, 86, 95, 97, 97, 98, 64, 86, 90, 91, 92, 88, 96, 98, 98, 98, 96, 99, 99, 99, 99, 74, 90, 93, 94, 95, 79, 92, 95, 96, 96, 81, 93, 95, 96, 97, 84, 94, 96, 97, 97, 95, 98, 99, 99, 99, 69, 88, 91, 93, 94, 76, 91, 94, 95, 96, 58, 83, 87, 90, 91, 78, 92, 94, 95, 96, 75, 91, 94, 95, 95, 88, 96, 98, 98, 98, 89, 97, 98, 98, 98, 86, 95, 97, 97, 98, 82, 94, 96, 96, 97, 22, 59, 69, 74, 76, 90, 97, 98, 98, 99, 95, 99, 99, 99, 99, 97, 99, 99, 99, 99, 68, 87, 91, 93, 93, 97, 99, 99, 99, 99, 98, 99, 99, 99, 99, 22, 60, 69, 74, 77, 55, 81, 86, 88, 90, 67, 87, 91, 92, 93, 93, 98, 99, 99, 99, 95, 99, 99, 99, 99, 74, 90, 93, 95, 95, 99, 99, 99, 99, 99, 85, 95, 96, 97, 98, 52, 80, 86, 87, 89, 77, 92, 94, 95, 96]);
precedence  = array2d(JOBS,MACHINES,[4, 3, 19, 6, 14, 1, 9, 0, 11, 17, 5, 16, 7, 10, 12, 8, 18, 13, 2, 15, 11, 19, 14, 15, 7, 10, 3, 12, 16, 2, 8, 5, 0, 13, 4, 6, 17, 18, 1, 9, 7, 13, 18, 2, 5, 4, 15, 1, 6, 16, 10, 9, 19, 3, 17, 8, 0, 11, 12, 14, 13, 9, 5, 19, 8, 4, 3, 1, 15, 0, 7, 16, 12, 14, 6, 17, 2, 18, 10, 11, 13, 3, 16, 2, 9, 4, 11, 1, 6, 0, 19, 10, 14, 5, 18, 7, 17, 8, 15, 12, 1, 8, 5, 13, 14, 4, 17, 15, 3, 12, 0, 10, 7, 11, 19, 6, 2, 16, 18, 9, 6, 4, 9, 8, 13, 10, 5, 12, 11, 17, 18, 3, 14, 1, 0, 2, 16, 19, 15, 7, 6, 19, 15, 3, 8, 12, 10, 17, 9, 18, 5, 14, 13, 1, 4, 11, 16, 0, 7, 2, 17, 19, 12, 3, 6, 0, 16, 13, 8, 4, 1, 11, 5, 18, 10, 2, 14, 9, 7, 15, 10, 0, 19, 9, 13, 14, 12, 17, 7, 11, 3, 18, 8, 5, 1, 16, 2, 4, 15, 6, 19, 16, 2, 5, 6, 17, 8, 14, 15, 12, 10, 0, 1, 3, 18, 11, 13, 7, 9, 4, 19, 12, 5, 3, 14, 0, 13, 2, 9, 1, 10, 6, 8, 18, 4, 15, 17, 16, 11, 7, 0, 10, 13, 8, 15, 12, 9, 4, 17, 11, 19, 1, 6, 3, 7, 14, 5, 18, 16, 2, 9, 15, 11, 13, 14, 0, 2, 19, 3, 4, 16, 18, 8, 7, 10, 6, 17, 12, 1, 5, 11, 6, 9, 2, 12, 0, 5, 19, 4, 7, 10, 3, 1, 14, 18, 15, 8, 16, 13, 17, 9, 3, 10, 7, 13, 2, 1, 11, 17, 5, 6, 8, 12, 0, 19, 15, 4, 16, 14, 18, 16, 18, 4, 6, 10, 5, 19, 8, 2, 9, 14, 11, 7, 3, 1, 0, 17, 13, 15, 12, 4, 19, 3, 1, 7, 6, 13, 18, 0, 10, 16, 8, 2, 17, 12, 11, 14, 5, 9, 15, 14, 16, 0, 3, 4, 5, 7, 9, 13, 17, 19, 15, 18, 12, 11, 1, 2, 10, 8, 6, 1, 7, 11, 15, 9, 16, 14, 4, 6, 8, 18, 3, 2, 17, 19, 0, 5, 12, 13, 10, 12, 7, 11, 19, 2, 8, 17, 4, 5, 13, 1, 16, 0, 15, 6, 9, 10, 3, 14, 18, 9, 16, 13, 4, 19, 0, 17, 8, 6, 14, 7, 1, 15, 18, 10, 3, 2, 11, 5, 12, 8, 12, 9, 3, 2, 19, 1, 7, 14, 13, 0, 16, 5, 15, 11, 18, 4, 10, 6, 17, 12, 1, 17, 3, 10, 9, 2, 18, 14, 0, 19, 16, 11, 15, 7, 4, 6, 13, 8, 5, 4, 8, 3, 14, 6, 11, 15, 16, 5, 12, 18, 2, 13, 0, 10, 17, 1, 19, 7, 9]);
releaseDate = array2d(JOBS,MACHINES,[152, 118, 258, 154, 211, 102, 166, 80, 186, 225, 153, 223, 157, 174, 188, 162, 254, 210, 103, 212, 141, 202, 154, 171, 123, 130, 60, 142, 172, 54, 126, 110, 30, 153, 106, 122, 173, 181, 31, 128, 96, 153, 199, 85, 93, 92, 175, 81, 94, 178, 125, 116, 204, 89, 183, 108, 70, 131, 135, 161, 184, 160, 138, 269, 153, 131, 116, 111, 216, 100, 152, 249, 176, 202, 140, 257, 115, 259, 161, 162, 281, 52, 293, 51, 241, 153, 278, 43, 164, 30, 358, 272, 285, 163, 320, 221, 319, 235, 288, 279, 21, 85, 44, 133, 134, 37, 143, 139, 28, 112, 20, 97, 66, 107, 149, 65, 27, 140, 144, 91, 26, 14, 61, 32, 87, 74, 16, 85, 84, 119, 120, 11, 92, 6, 0, 8, 115, 121, 93, 30, 121, 200, 175, 75, 136, 152, 143, 194, 137, 197, 77, 161, 153, 53, 76, 144, 185, 50, 124, 55, 204, 233, 173, 107, 137, 90, 201, 198, 141, 130, 91, 145, 134, 210, 144, 104, 199, 143, 140, 200, 161, 60, 204, 160, 170, 187, 169, 199, 147, 166, 108, 200, 148, 125, 64, 190, 87, 115, 189, 140, 171, 146, 37, 70, 78, 164, 105, 139, 140, 130, 120, 30, 34, 49, 165, 128, 138, 99, 112, 65, 206, 166, 120, 116, 184, 100, 173, 115, 146, 109, 154, 132, 142, 203, 117, 186, 189, 188, 165, 135, 30, 117, 159, 113, 161, 155, 116, 42, 167, 137, 190, 33, 97, 41, 111, 160, 75, 178, 166, 40, 103, 201, 184, 186, 191, 50, 53, 240, 57, 60, 224, 239, 99, 89, 106, 87, 232, 185, 51, 86, 188, 156, 184, 100, 189, 90, 123, 205, 115, 161, 185, 102, 91, 194, 203, 199, 163, 201, 191, 202, 82, 23, 90, 78, 128, 15, 14, 95, 177, 46, 48, 80, 107, 0, 181, 166, 43, 168, 131, 178, 131, 147, 36, 51, 95, 50, 148, 68, 30, 78, 129, 99, 56, 34, 28, 20, 133, 116, 130, 113, 123, 268, 113, 99, 190, 136, 207, 267, 90, 204, 262, 191, 111, 265, 206, 205, 209, 135, 199, 260, 179, 211, 100, 119, 127, 135, 137, 148, 175, 218, 233, 202, 221, 168, 167, 107, 111, 163, 141, 136, 91, 155, 167, 184, 160, 185, 174, 131, 154, 159, 196, 111, 97, 192, 205, 90, 152, 171, 172, 166, 242, 186, 239, 264, 110, 212, 254, 123, 138, 245, 101, 253, 90, 250, 168, 233, 237, 120, 249, 260, 67, 129, 106, 47, 165, 10, 139, 66, 49, 107, 54, 21, 117, 143, 68, 46, 38, 70, 48, 84, 54, 82, 70, 47, 46, 158, 40, 53, 94, 86, 30, 103, 51, 95, 81, 138, 50, 76, 52, 130, 168, 81, 186, 112, 161, 157, 94, 191, 177, 70, 193, 179, 163, 178, 142, 120, 129, 169, 151, 127, 56, 82, 43, 115, 59, 95, 173, 174, 58, 96, 200, 22, 97, 20, 94, 188, 21, 236, 63, 87]);
dueDate     = array2d(JOBS,MACHINES,[153, 152, 259, 157, 212, 103, 174, 102, 188, 254, 154, 225, 162, 186, 210, 166, 258, 211, 118, 223, 142, 210, 171, 172, 126, 141, 106, 153, 173, 60, 128, 122, 31, 154, 110, 123, 181, 202, 54, 130, 108, 161, 204, 89, 94, 93, 178, 85, 96, 183, 131, 125, 206, 92, 199, 116, 81, 135, 153, 175, 202, 161, 140, 274, 160, 138, 131, 115, 249, 111, 153, 257, 184, 216, 152, 259, 116, 269, 162, 176, 285, 153, 319, 52, 272, 163, 279, 51, 221, 43, 360, 278, 288, 164, 358, 235, 320, 241, 293, 281, 27, 91, 65, 134, 139, 44, 144, 140, 37, 133, 21, 107, 85, 112, 151, 66, 28, 143, 149, 97, 30, 16, 74, 61, 92, 84, 26, 87, 85, 120, 121, 14, 93, 8, 6, 11, 119, 136, 115, 32, 124, 206, 185, 76, 137, 153, 144, 197, 143, 200, 121, 175, 161, 55, 77, 152, 194, 53, 136, 75, 210, 242, 198, 130, 140, 91, 204, 199, 143, 134, 104, 173, 137, 233, 145, 107, 200, 144, 141, 201, 166, 64, 206, 161, 187, 189, 170, 200, 148, 169, 115, 204, 160, 140, 87, 199, 108, 125, 190, 147, 213, 164, 49, 78, 99, 165, 112, 140, 146, 138, 128, 34, 37, 65, 171, 130, 139, 105, 120, 70, 219, 173, 132, 117, 186, 109, 184, 116, 154, 115, 165, 135, 146, 206, 120, 188, 203, 189, 166, 142, 33, 137, 160, 116, 166, 159, 117, 75, 178, 155, 196, 40, 111, 42, 113, 161, 97, 190, 167, 41, 106, 224, 185, 191, 201, 51, 57, 241, 60, 86, 232, 240, 103, 99, 184, 89, 239, 186, 53, 87, 189, 161, 185, 102, 191, 91, 156, 207, 123, 163, 188, 115, 100, 199, 205, 201, 184, 202, 194, 203, 90, 43, 95, 80, 131, 23, 15, 107, 178, 48, 78, 82, 128, 14, 182, 168, 46, 177, 166, 181, 133, 148, 50, 56, 99, 51, 151, 78, 34, 95, 130, 113, 68, 36, 30, 28, 147, 129, 131, 116, 135, 326, 123, 111, 191, 190, 209, 268, 99, 205, 265, 199, 113, 267, 207, 206, 260, 136, 204, 262, 202, 218, 107, 127, 135, 136, 141, 163, 179, 221, 234, 211, 233, 175, 168, 111, 119, 167, 148, 137, 97, 159, 171, 185, 166, 192, 184, 152, 155, 160, 205, 131, 111, 196, 240, 91, 154, 172, 174, 167, 245, 212, 242, 265, 120, 233, 260, 138, 168, 249, 110, 254, 101, 253, 186, 237, 239, 123, 250, 264, 68, 139, 107, 48, 173, 21, 143, 67, 54, 117, 66, 38, 129, 165, 70, 47, 46, 84, 49, 106, 70, 86, 76, 50, 47, 163, 46, 54, 95, 94, 40, 130, 52, 103, 82, 158, 51, 81, 53, 138, 169, 94, 191, 120, 163, 161, 112, 193, 178, 81, 207, 186, 168, 179, 151, 127, 142, 177, 157, 129, 58, 87, 56, 173, 63, 96, 174, 188, 59, 97, 236, 43, 115, 21, 95, 200, 22, 241, 82, 94]);